NAME: C206
COMMENT: converted from Solomon txt
TYPE: VRPTW
VEHICLES: 25
DIMENSION: 101
CAPACITY: 700
EDGE_WEIGHT_TYPE: EUC_2D
NODE_COORD_SECTION
1	40.0	50.0
2	52.0	75.0
3	45.0	70.0
4	62.0	69.0
5	60.0	66.0
6	42.0	65.0
7	16.0	42.0
8	58.0	70.0
9	34.0	60.0
10	28.0	70.0
11	35.0	66.0
12	35.0	69.0
13	25.0	85.0
14	22.0	75.0
15	22.0	85.0
16	20.0	80.0
17	20.0	85.0
18	18.0	75.0
19	15.0	75.0
20	15.0	80.0
21	30.0	50.0
22	30.0	56.0
23	28.0	52.0
24	14.0	66.0
25	25.0	50.0
26	22.0	66.0
27	8.0	62.0
28	23.0	52.0
29	4.0	55.0
30	20.0	50.0
31	20.0	55.0
32	10.0	35.0
33	10.0	40.0
34	8.0	40.0
35	8.0	45.0
36	5.0	35.0
37	5.0	45.0
38	2.0	40.0
39	0.0	40.0
40	0.0	45.0
41	36.0	18.0
42	35.0	32.0
43	33.0	32.0
44	33.0	35.0
45	32.0	20.0
46	30.0	30.0
47	34.0	25.0
48	30.0	35.0
49	36.0	40.0
50	48.0	20.0
51	26.0	32.0
52	25.0	30.0
53	25.0	35.0
54	44.0	5.0
55	42.0	10.0
56	42.0	15.0
57	40.0	5.0
58	38.0	15.0
59	38.0	5.0
60	38.0	10.0
61	35.0	5.0
62	50.0	30.0
63	50.0	35.0
64	50.0	40.0
65	48.0	30.0
66	44.0	25.0
67	47.0	35.0
68	47.0	40.0
69	42.0	30.0
70	45.0	35.0
71	95.0	30.0
72	95.0	35.0
73	53.0	30.0
74	92.0	30.0
75	53.0	35.0
76	45.0	65.0
77	90.0	35.0
78	72.0	45.0
79	78.0	40.0
80	87.0	30.0
81	85.0	25.0
82	85.0	35.0
83	75.0	55.0
84	72.0	55.0
85	70.0	58.0
86	86.0	46.0
87	66.0	55.0
88	64.0	46.0
89	65.0	60.0
90	56.0	64.0
91	60.0	55.0
92	60.0	60.0
93	67.0	85.0
94	42.0	58.0
95	65.0	82.0
96	62.0	80.0
97	62.0	40.0
98	60.0	85.0
99	58.0	75.0
100	55.0	80.0
101	55.0	85.0
DEMAND_SECTION
1	0
2	10
3	30
4	10
5	10
6	10
7	20
8	20
9	20
10	10
11	10
12	10
13	20
14	30
15	10
16	40
17	40
18	20
19	20
20	10
21	10
22	20
23	20
24	10
25	10
26	40
27	10
28	10
29	20
30	10
31	10
32	20
33	30
34	40
35	20
36	10
37	10
38	20
39	30
40	20
41	10
42	10
43	20
44	10
45	10
46	10
47	30
48	10
49	10
50	10
51	10
52	10
53	10
54	20
55	40
56	10
57	30
58	40
59	30
60	10
61	20
62	10
63	20
64	50
65	10
66	10
67	10
68	10
69	10
70	10
71	30
72	20
73	10
74	10
75	50
76	20
77	10
78	10
79	20
80	10
81	10
82	30
83	20
84	10
85	20
86	30
87	10
88	20
89	30
90	10
91	10
92	10
93	20
94	40
95	10
96	30
97	10
98	30
99	20
100	10
101	20
DEPOT_SECTION
1
TIME_WINDOW_SECTION
1	0.0	3390.0
2	213.0	568.0
3	22.0	563.0
4	1030.0	1463.0
5	1154.0	1527.0
6	15.0	402.0
7	331.0	822.0
8	965.0	1340.0
9	2653.0	3280.0
10	2385.0	2976.0
11	2628.0	3113.0
12	2603.0	2952.0
13	1985.0	2412.0
14	2310.0	2659.0
15	1846.0	2365.0
16	2077.0	2514.0
17	1763.0	2264.0
18	2143.0	2638.0
19	1560.0	2083.0
20	1689.0	2144.0
21	10.0	645.0
22	2675.0	3288.0
23	12.0	505.0
24	1519.0	1926.0
25	23.0	368.0
26	2380.0	2787.0
27	1330.0	1919.0
28	93.0	484.0
29	1268.0	1785.0
30	168.0	787.0
31	170.0	595.0
32	585.0	1136.0
33	448.0	897.0
34	499.0	1030.0
35	1190.0	1661.0
36	666.0	1245.0
37	1076.0	1589.0
38	772.0	1329.0
39	890.0	1395.0
40	1036.0	1439.0
41	1612.0	2185.0
42	2599.0	3076.0
43	2529.0	2962.0
44	2463.0	2842.0
45	1745.0	2240.0
46	1932.0	2437.0
47	1884.0	2293.0
48	2348.0	2771.0
49	2715.0	3156.0
50	812.0	1281.0
51	2018.0	2725.0
52	2015.0	2544.0
53	2201.0	2728.0
54	1078.0	1593.0
55	998.0	1481.0
56	897.0	1392.0
57	1199.0	1660.0
58	1552.0	2057.0
59	1263.0	1780.0
60	1498.0	1921.0
61	1325.0	1904.0
62	223.0	738.0
63	18.0	474.0
64	14.0	360.0
65	246.0	899.0
66	704.0	1197.0
67	393.0	942.0
68	12.0	424.0
69	641.0	1070.0
70	534.0	985.0
71	2119.0	2682.0
72	2079.0	2532.0
73	131.0	644.0
74	2169.0	2818.0
75	87.0	498.0
76	15.0	607.0
77	2002.0	2419.0
78	2701.0	3258.0
79	2599.0	3164.0
80	2505.0	2870.0
81	2369.0	2816.0
82	2563.0	3002.0
83	1783.0	2226.0
84	1591.0	2232.0
85	1513.0	1928.0
86	1829.0	2388.0
87	1604.0	2027.0
88	2976.0	3275.0
89	1338.0	1913.0
90	1116.0	1753.0
91	2789.0	3279.0
92	1349.0	1712.0
93	518.0	1029.0
94	8.0	509.0
95	549.0	1186.0
96	744.0	1177.0
97	2713.0	3275.0
98	397.0	956.0
99	839.0	1276.0
100	272.0	701.0
101	373.0	790.0
SERVICE_TIME_SECTION
1	0.0
2	90.0
3	90.0
4	90.0
5	90.0
6	90.0
7	90.0
8	90.0
9	90.0
10	90.0
11	90.0
12	90.0
13	90.0
14	90.0
15	90.0
16	90.0
17	90.0
18	90.0
19	90.0
20	90.0
21	90.0
22	90.0
23	90.0
24	90.0
25	90.0
26	90.0
27	90.0
28	90.0
29	90.0
30	90.0
31	90.0
32	90.0
33	90.0
34	90.0
35	90.0
36	90.0
37	90.0
38	90.0
39	90.0
40	90.0
41	90.0
42	90.0
43	90.0
44	90.0
45	90.0
46	90.0
47	90.0
48	90.0
49	90.0
50	90.0
51	90.0
52	90.0
53	90.0
54	90.0
55	90.0
56	90.0
57	90.0
58	90.0
59	90.0
60	90.0
61	90.0
62	90.0
63	90.0
64	90.0
65	90.0
66	90.0
67	90.0
68	90.0
69	90.0
70	90.0
71	90.0
72	90.0
73	90.0
74	90.0
75	90.0
76	90.0
77	90.0
78	90.0
79	90.0
80	90.0
81	90.0
82	90.0
83	90.0
84	90.0
85	90.0
86	90.0
87	90.0
88	90.0
89	90.0
90	90.0
91	90.0
92	90.0
93	90.0
94	90.0
95	90.0
96	90.0
97	90.0
98	90.0
99	90.0
100	90.0
101	90.0
EOF
